p cnf 284 824
c
c CNF representation of circuit s344 with a subset ofoutputs randomly xor-ed
c Generated by mMsim
c Total gates: 184 Total inputs 24
c
c
p cnf 284 824
c
c Declaration of independent support
c
c ind 1 2 3 4 5 0
c ind 6 7 8 9 10 0
c ind 11 12 13 14 15 0
c ind 16 17 18 19 20 0
c ind 21 22 23 24 0
c
c Gate #26: not (NOT_0): out = 25, in = 10 
25 10 0
-25 -10 0
c Gate #27: not (NOT_1): out = 26, in = 11 
26 11 0
-26 -11 0
c Gate #28: not (NOT_2): out = 27, in = 12 
27 12 0
-27 -12 0
c Gate #29: not (NOT_3): out = 28, in = 13 
28 13 0
-28 -13 0
c Gate #30: not (NOT_4): out = 29, in = 14 
29 14 0
-29 -14 0
c Gate #31: not (NOT_5): out = 30, in = 15 
30 15 0
-30 -15 0
c Gate #32: not (NOT_6): out = 31, in = 16 
31 16 0
-31 -16 0
c Gate #33: not (NOT_7): out = 32, in = 17 
32 17 0
-32 -17 0
c Gate #34: not (NOT_8): out = 33, in = 18 
33 18 0
-33 -18 0
c Gate #35: not (NOT_9): out = 34, in = 19 
34 19 0
-34 -19 0
c Gate #36: not (NOT_10): out = 35, in = 20 
35 20 0
-35 -20 0
c Gate #37: not (NOT_11): out = 36, in = 12 
36 12 0
-36 -12 0
c Gate #38: not (NOT_12): out = 37, in = 11 
37 11 0
-37 -11 0
c Gate #39: not (NOT_13): out = 38, in = 1 
38 1 0
-38 -1 0
c Gate #40: not (NOT_14): out = 39, in = 27 
39 27 0
-39 -27 0
c Gate #41: nand (NAND3_0): out = 40, in = 10 37 12 
-186 10 0
-186 37 0
186 -10 -37 0
-185 186 0
-185 12 0
185 -186 -12 0
40 185 0
-40 -185 0
c Gate #42: nand (NAND2_0): out = 41, in = 24 35 
41 24 0
41 35 0
-41 -24 -35 0
c Gate #43: nand (NAND2_1): out = 42, in = 23 35 
42 23 0
42 35 0
-42 -23 -35 0
c Gate #44: nand (NAND2_2): out = 43, in = 22 35 
43 22 0
43 35 0
-43 -22 -35 0
c Gate #45: nand (NAND2_3): out = 44, in = 21 35 
44 21 0
44 35 0
-44 -21 -35 0
c Gate #46: nand (NAND2_4): out = 45, in = 39 11 
45 39 0
45 11 0
-45 -39 -11 0
c Gate #47: nor (NOR3_0): out = 46, in = 10 11 12 
188 -10 0
188 -11 0
-188 10 11 0
187 -188 0
187 -12 0
-187 188 12 0
46 187 0
-46 -187 0
c Gate #48: nor (NOR2_0): out = 47, in = 36 26 
-47 -36 0
-47 -26 0
47 36 26 0
c Gate #49: nor (NOR2_1): out = 48, in = 45 25 
-48 -45 0
-48 -25 0
48 45 25 0
c Gate #50: not (NOT_24): out = 49, in = 43 
49 43 0
-49 -43 0
c Gate #51: not (NOT_25): out = 50, in = 44 
50 44 0
-50 -44 0
c Gate #52: not (NOT_26): out = 51, in = 45 
51 45 0
-51 -45 0
c Gate #53: and (AND2_13): out = 52, in = 29 49 
-52 29 0
-52 49 0
52 -29 -49 0
c Gate #54: and (AND2_14): out = 53, in = 28 50 
-53 28 0
-53 50 0
53 -28 -50 0
c Gate #55: or (OR2_2): out = 54, in = 29 49 
54 -29 0
54 -49 0
-54 29 49 0
c Gate #56: or (OR2_3): out = 55, in = 28 50 
55 -28 0
55 -50 0
-55 28 50 0
c Gate #57: or (OR2_4): out = 56, in = 51 10 
56 -51 0
56 -10 0
-56 51 10 0
c Gate #58: not (NOT_15): out = 57, in = 46 
57 46 0
-57 -46 0
c Gate #59: not (NOT_16): out = 58, in = 40 
58 40 0
-58 -40 0
c Gate #60: not (NOT_17): out = 59, in = 40 
59 40 0
-59 -40 0
c Gate #61: not (NOT_18): out = 60, in = 57 
60 57 0
-60 -57 0
c Gate #62: not (NOT_19): out = 61, in = 57 
61 57 0
-61 -57 0
c Gate #63: not (NOT_20): out = 62, in = 57 
62 57 0
-62 -57 0
c Gate #64: nand (NAND2_5): out = 63, in = 47 10 
63 47 0
63 10 0
-63 -47 -10 0
c Gate #65: nand (NAND2_7): out = 64, in = 51 10 
64 51 0
64 10 0
-64 -51 -10 0
c Gate #66: nand (NAND2_11): out = 65, in = 64 56 
65 64 0
65 56 0
-65 -64 -56 0
c Gate #67: not (NOT_21): out = 66, in = 57 
66 57 0
-66 -57 0
c Gate #68: not (NOT_22): out = 67, in = 41 
67 41 0
-67 -41 0
c Gate #69: not (NOT_23): out = 68, in = 42 
68 42 0
-68 -42 0
c Gate #70: nor (NOR2_2): out = 69, in = 46 58 
-69 -46 0
-69 -58 0
69 46 58 0
c Gate #71: nor (NOR2_3): out = 70, in = 36 58 
-70 -36 0
-70 -58 0
70 36 58 0
c Gate #72: nor (NOR2_12): out = 71, in = 1 65 
-71 -1 0
-71 -65 0
71 1 65 0
c Gate #73: and (AND2_0): out = 72, in = 21 57 
-72 21 0
-72 57 0
72 -21 -57 0
c Gate #74: and (AND2_1): out = 73, in = 22 57 
-73 22 0
-73 57 0
73 -22 -57 0
c Gate #75: and (AND2_2): out = 74, in = 23 57 
-74 23 0
-74 57 0
74 -23 -57 0
c Gate #76: and (AND2_3): out = 75, in = 24 57 
-75 24 0
-75 57 0
75 -24 -57 0
c Gate #77: and (AND2_4): out = 76, in = 32 59 
-76 32 0
-76 59 0
76 -32 -59 0
c Gate #78: and (AND2_5): out = 77, in = 33 59 
-77 33 0
-77 59 0
77 -33 -59 0
c Gate #79: and (AND2_6): out = 78, in = 34 59 
-78 34 0
-78 59 0
78 -34 -59 0
c Gate #80: and (AND2_7): out = 79, in = 35 59 
-79 35 0
-79 59 0
79 -35 -59 0
c Gate #81: and (AND2_8): out = 80, in = 9 60 
-80 9 0
-80 60 0
80 -9 -60 0
c Gate #82: and (AND2_9): out = 81, in = 8 61 
-81 8 0
-81 61 0
81 -8 -61 0
c Gate #83: and (AND2_10): out = 82, in = 7 62 
-82 7 0
-82 62 0
82 -7 -62 0
c Gate #84: and (AND2_11): out = 83, in = 6 66 
-83 6 0
-83 66 0
83 -6 -66 0
c Gate #85: and (AND2_12): out = 84, in = 30 68 
-84 30 0
-84 68 0
84 -30 -68 0
c Gate #86: not (NOT_27): out = 85, in = 58 
85 58 0
-85 -58 0
c Gate #87: not (NOT_28): out = 86, in = 59 
86 59 0
-86 -59 0
c Gate #88: and (AND2_15): out = 87, in = 32 69 
-87 32 0
-87 69 0
87 -32 -69 0
c Gate #89: and (AND2_16): out = 88, in = 33 69 
-88 33 0
-88 69 0
88 -33 -69 0
c Gate #90: and (AND2_17): out = 89, in = 34 69 
-89 34 0
-89 69 0
89 -34 -69 0
c Gate #91: and (AND2_18): out = 90, in = 5 86 
-90 5 0
-90 86 0
90 -5 -86 0
c Gate #92: or (OR2_0): out = 91, in = 31 67 
91 -31 0
91 -67 0
-91 31 67 0
c Gate #93: or (OR2_1): out = 92, in = 30 68 
92 -30 0
92 -68 0
-92 30 68 0
c Gate #94: not (NOT_29): out = 93, in = 59 
93 59 0
-93 -59 0
c Gate #95: not (NOT_30): out = 94, in = 59 
94 59 0
-94 -59 0
c Gate #96: not (NOT_31): out = 95, in = 59 
95 59 0
-95 -59 0
c Gate #97: or (OR2_5): out = 96, in = 70 11 
96 -70 0
96 -11 0
-96 70 11 0
c Gate #98: not (NOT_32): out = 97, in = 69 
97 69 0
-97 -69 0
c Gate #99: not (NOT_33): out = 98, in = 69 
98 69 0
-98 -69 0
c Gate #100: not (NOT_35): out = 99, in = 97 
99 97 0
-99 -97 0
c Gate #101: not (NOT_36): out = 100, in = 97 
100 97 0
-100 -97 0
c Gate #102: not (NOT_37): out = 101, in = 97 
101 97 0
-101 -97 0
c Gate #103: not (NOT_38): out = 102, in = 97 
102 97 0
-102 -97 0
c Gate #104: nand (NAND2_6): out = 103, in = 31 67 
103 31 0
103 67 0
-103 -31 -67 0
c Gate #105: nand (NAND2_8): out = 104, in = 70 11 
104 70 0
104 11 0
-104 -70 -11 0
c Gate #106: nand (NAND2_9): out = 105, in = 85 12 
105 85 0
105 12 0
-105 -85 -12 0
c Gate #107: nand (NAND2_10): out = 106, in = 103 91 
106 103 0
106 91 0
-106 -103 -91 0
c Gate #108: nand (NAND2_12): out = 107, in = 104 96 
107 104 0
107 96 0
-107 -104 -96 0
c Gate #109: not (NOT_44): out = 108, in = 106 
108 106 0
-108 -106 0
c Gate #110: nor (NOR2_4): out = 109, in = 72 80 
-109 -72 0
-109 -80 0
109 72 80 0
c Gate #111: nor (NOR2_5): out = 110, in = 73 81 
-110 -73 0
-110 -81 0
110 73 81 0
c Gate #112: nor (NOR2_6): out = 111, in = 74 82 
-111 -74 0
-111 -82 0
111 74 82 0
c Gate #113: nor (NOR2_7): out = 112, in = 75 83 
-112 -75 0
-112 -83 0
112 75 83 0
c Gate #114: nor (NOR2_8): out = 113, in = 76 90 
-113 -76 0
-113 -90 0
113 76 90 0
c Gate #115: nor (NOR2_13): out = 114, in = 1 107 
-114 -1 0
-114 -107 0
114 1 107 0
c Gate #116: not (NOT_34): out = 115, in = 103 
115 103 0
-115 -103 0
c Gate #117: and (AND2_19): out = 116, in = 4 93 
-116 4 0
-116 93 0
116 -4 -93 0
c Gate #118: not (NOT_39): out = 117, in = 105 
117 105 0
-117 -105 0
c Gate #119: and (AND2_20): out = 118, in = 3 94 
-118 3 0
-118 94 0
118 -3 -94 0
c Gate #120: and (AND2_21): out = 119, in = 2 95 
-119 2 0
-119 95 0
119 -2 -95 0
c Gate #121: and (AND2_22): out = 120, in = 28 97 
-120 28 0
-120 97 0
120 -28 -97 0
c Gate #122: not (NOT_40): out = 121, in = 109 
121 109 0
-121 -109 0
c Gate #123: and (AND2_23): out = 122, in = 29 97 
-122 29 0
-122 97 0
122 -29 -97 0
c Gate #124: not (NOT_41): out = 123, in = 110 
123 110 0
-123 -110 0
c Gate #125: not (NOT_42): out = 124, in = 111 
124 111 0
-124 -111 0
c Gate #126: not (NOT_43): out = 125, in = 112 
125 112 0
-125 -112 0
c Gate #127: and (AND2_24): out = 126, in = 30 97 
-126 30 0
-126 97 0
126 -30 -97 0
c Gate #128: not (NOT_45): out = 127, in = 113 
127 113 0
-127 -113 0
c Gate #129: and (AND2_25): out = 128, in = 31 97 
-128 31 0
-128 97 0
128 -31 -97 0
c Gate #130: and (AND3_0): out = 129, in = 30 68 115 
-189 30 0
-189 68 0
189 -30 -68 0
-129 189 0
-129 115 0
129 -189 -115 0
c Gate #131: and (AND2_26): out = 130, in = 92 115 
-130 92 0
-130 115 0
130 -92 -115 0
c Gate #132: and (AND2_27): out = 131, in = 108 69 
-131 108 0
-131 69 0
131 -108 -69 0
c Gate #133: and (AND2_28): out = 132, in = 127 98 
-132 127 0
-132 98 0
132 -127 -98 0
c Gate #134: nor (NOR2_9): out = 133, in = 77 116 
-133 -77 0
-133 -116 0
133 77 116 0
c Gate #135: nor (NOR2_10): out = 134, in = 78 118 
-134 -78 0
-134 -118 0
134 78 118 0
c Gate #136: nor (NOR2_11): out = 135, in = 79 119 
-135 -79 0
-135 -119 0
135 79 119 0
c Gate #137: not (NOT_46): out = 136, in = 133 
136 133 0
-136 -133 0
c Gate #138: and (AND2_29): out = 137, in = 136 98 
-137 136 0
-137 98 0
137 -136 -98 0
c Gate #139: nor (NOR2_14): out = 138, in = 1 117 
-138 -1 0
-138 -117 0
138 1 117 0
c Gate #140: nor (NOR2_15): out = 139, in = 84 130 
-139 -84 0
-139 -130 0
139 84 130 0
c Gate #141: nor (NOR2_16): out = 140, in = 131 132 
-140 -131 0
-140 -132 0
140 131 132 0
c Gate #142: nor (NOR2_17): out = 141, in = 87 137 
-141 -87 0
-141 -137 0
141 87 137 0
c Gate #143: not (NOT_47): out = 142, in = 134 
142 134 0
-142 -134 0
c Gate #144: or (OR3_0): out = 143, in = 30 68 115 
190 -30 0
190 -68 0
-190 30 68 0
143 -190 0
143 -115 0
-143 190 115 0
c Gate #145: not (NOT_48): out = 144, in = 135 
144 135 0
-144 -135 0
c Gate #146: not (NOT_49): out = 145, in = 139 
145 139 0
-145 -139 0
c Gate #147: and (AND2_30): out = 146, in = 142 98 
-146 142 0
-146 98 0
146 -142 -98 0
c Gate #148: nor (NOR2_18): out = 147, in = 88 146 
-147 -88 0
-147 -146 0
147 88 146 0
c Gate #149: or (OR3_1): out = 148, in = 29 49 145 
191 -29 0
191 -49 0
-191 29 49 0
148 -191 0
148 -145 0
-148 191 145 0
c Gate #150: and (AND2_31): out = 149, in = 144 98 
-149 144 0
-149 98 0
149 -144 -98 0
c Gate #151: and (AND2_32): out = 150, in = 139 143 
-150 139 0
-150 143 0
150 -139 -143 0
c Gate #152: and (AND3_1): out = 151, in = 29 49 145 
-192 29 0
-192 49 0
192 -29 -49 0
-151 192 0
-151 145 0
151 -192 -145 0
c Gate #153: and (AND2_33): out = 152, in = 54 145 
-152 54 0
-152 145 0
152 -54 -145 0
c Gate #154: nor (NOR2_19): out = 153, in = 89 149 
-153 -89 0
-153 -149 0
153 89 149 0
c Gate #155: nor (NOR2_20): out = 154, in = 150 129 
-154 -150 0
-154 -129 0
154 150 129 0
c Gate #156: nor (NOR2_21): out = 155, in = 52 152 
-155 -52 0
-155 -152 0
155 52 152 0
c Gate #157: and (AND2_34): out = 156, in = 155 148 
-156 155 0
-156 148 0
156 -155 -148 0
c Gate #158: not (NOT_50): out = 157, in = 154 
157 154 0
-157 -154 0
c Gate #159: not (NOT_51): out = 158, in = 155 
158 155 0
-158 -155 0
c Gate #160: and (AND2_36): out = 159, in = 55 158 
-159 55 0
-159 158 0
159 -55 -158 0
c Gate #161: nor (NOR2_22): out = 160, in = 156 151 
-160 -156 0
-160 -151 0
160 156 151 0
c Gate #162: nor (NOR2_24): out = 161, in = 53 159 
-161 -53 0
-161 -159 0
161 53 159 0
c Gate #163: not (NOT_52): out = 162, in = 160 
162 160 0
-162 -160 0
c Gate #164: or (OR3_2): out = 163, in = 28 50 158 
193 -28 0
193 -50 0
-193 28 50 0
163 -193 0
163 -158 0
-163 193 158 0
c Gate #165: and (AND2_35): out = 164, in = 157 102 
-164 157 0
-164 102 0
164 -157 -102 0
c Gate #166: and (AND3_2): out = 165, in = 28 50 158 
-194 28 0
-194 50 0
194 -28 -50 0
-165 194 0
-165 158 0
165 -194 -158 0
c Gate #167: and (AND2_38): out = 166, in = 162 101 
-166 162 0
-166 101 0
166 -162 -101 0
c Gate #168: not (NOT_54): out = 167, in = 161 
167 161 0
-167 -161 0
c Gate #169: nor (NOR2_23): out = 168, in = 128 164 
-168 -128 0
-168 -164 0
168 128 164 0
c Gate #170: nor (NOR2_26): out = 169, in = 126 166 
-169 -126 0
-169 -166 0
169 126 166 0
c Gate #171: not (NOT_56): out = 170, in = 169 
170 169 0
-170 -169 0
c Gate #172: not (NOT_53): out = 171, in = 168 
171 168 0
-171 -168 0
c Gate #173: and (AND2_39): out = 172, in = 167 99 
-172 167 0
-172 99 0
172 -167 -99 0
c Gate #174: nand (NAND2_14): out = 173, in = 170 38 
173 170 0
173 38 0
-173 -170 -38 0
c Gate #175: and (AND2_37): out = 174, in = 161 163 
-174 161 0
-174 163 0
174 -161 -163 0
c Gate #176: nor (NOR2_25): out = 175, in = 174 165 
-175 -174 0
-175 -165 0
175 174 165 0
c Gate #177: nor (NOR2_27): out = 176, in = 120 172 
-176 -120 0
-176 -172 0
176 120 172 0
c Gate #178: nand (NAND2_13): out = 177, in = 171 38 
177 171 0
177 38 0
-177 -171 -38 0
c Gate #179: not (NOT_57): out = 178, in = 176 
178 176 0
-178 -176 0
c Gate #180: not (NOT_55): out = 179, in = 175 
179 175 0
-179 -175 0
c Gate #181: nand (NAND2_15): out = 180, in = 178 38 
180 178 0
180 38 0
-180 -178 -38 0
c Gate #182: and (AND2_40): out = 181, in = 179 100 
-181 179 0
-181 100 0
181 -179 -100 0
c Gate #183: nor (NOR2_28): out = 182, in = 122 181 
-182 -122 0
-182 -181 0
182 122 181 0
c Gate #184: not (NOT_58): out = 183, in = 182 
183 182 0
-183 -182 0
c Gate #185: nand (NAND2_16): out = 184, in = 183 38 
184 183 0
184 38 0
-184 -183 -38 0
c
c Random XOR constraints start here
c
-195 153 147 0
-195 -153 -147 0
195 -153 147 0
195 153 -147 0
-196 195 114 0
-196 -195 -114 0
196 -195 114 0
196 195 -114 0
-197 196 173 0
-197 -196 -173 0
197 -196 173 0
197 196 -173 0
-198 197 124 0
-198 -197 -124 0
198 -197 124 0
198 197 -124 0
-199 198 35 0
-199 -198 -35 0
199 -198 35 0
199 198 -35 0
-200 199 30 0
-200 -199 -30 0
200 -199 30 0
200 199 -30 0
200 0
c Rand xor clause 1 with 7 lits
-201 153 147 0
-201 -153 -147 0
201 -153 147 0
201 153 -147 0
-202 201 114 0
-202 -201 -114 0
202 -201 114 0
202 201 -114 0
-203 202 173 0
-203 -202 -173 0
203 -202 173 0
203 202 -173 0
-204 203 124 0
-204 -203 -124 0
204 -203 124 0
204 203 -124 0
-205 204 35 0
-205 -204 -35 0
205 -204 35 0
205 204 -35 0
-206 205 30 0
-206 -205 -30 0
206 -205 30 0
206 205 -30 0
206 0
c Rand xor clause 2 with 7 lits
-207 153 147 0
-207 -153 -147 0
207 -153 147 0
207 153 -147 0
-208 207 114 0
-208 -207 -114 0
208 -207 114 0
208 207 -114 0
-209 208 173 0
-209 -208 -173 0
209 -208 173 0
209 208 -173 0
-210 209 124 0
-210 -209 -124 0
210 -209 124 0
210 209 -124 0
-211 210 35 0
-211 -210 -35 0
211 -210 35 0
211 210 -35 0
-212 211 30 0
-212 -211 -30 0
212 -211 30 0
212 211 -30 0
212 0
c Rand xor clause 3 with 7 lits
-213 153 147 0
-213 -153 -147 0
213 -153 147 0
213 153 -147 0
-214 213 114 0
-214 -213 -114 0
214 -213 114 0
214 213 -114 0
-215 214 173 0
-215 -214 -173 0
215 -214 173 0
215 214 -173 0
-216 215 124 0
-216 -215 -124 0
216 -215 124 0
216 215 -124 0
-217 216 35 0
-217 -216 -35 0
217 -216 35 0
217 216 -35 0
-218 217 30 0
-218 -217 -30 0
218 -217 30 0
218 217 -30 0
218 0
c Rand xor clause 4 with 7 lits
-219 153 147 0
-219 -153 -147 0
219 -153 147 0
219 153 -147 0
-220 219 114 0
-220 -219 -114 0
220 -219 114 0
220 219 -114 0
-221 220 173 0
-221 -220 -173 0
221 -220 173 0
221 220 -173 0
-222 221 124 0
-222 -221 -124 0
222 -221 124 0
222 221 -124 0
-223 222 35 0
-223 -222 -35 0
223 -222 35 0
223 222 -35 0
-224 223 30 0
-224 -223 -30 0
224 -223 30 0
224 223 -30 0
224 0
c Rand xor clause 5 with 7 lits
-225 153 147 0
-225 -153 -147 0
225 -153 147 0
225 153 -147 0
-226 225 114 0
-226 -225 -114 0
226 -225 114 0
226 225 -114 0
-227 226 173 0
-227 -226 -173 0
227 -226 173 0
227 226 -173 0
-228 227 124 0
-228 -227 -124 0
228 -227 124 0
228 227 -124 0
-229 228 35 0
-229 -228 -35 0
229 -228 35 0
229 228 -35 0
-230 229 30 0
-230 -229 -30 0
230 -229 30 0
230 229 -30 0
230 0
c Rand xor clause 6 with 7 lits
-231 153 147 0
-231 -153 -147 0
231 -153 147 0
231 153 -147 0
-232 231 114 0
-232 -231 -114 0
232 -231 114 0
232 231 -114 0
-233 232 173 0
-233 -232 -173 0
233 -232 173 0
233 232 -173 0
-234 233 124 0
-234 -233 -124 0
234 -233 124 0
234 233 -124 0
-235 234 35 0
-235 -234 -35 0
235 -234 35 0
235 234 -35 0
-236 235 30 0
-236 -235 -30 0
236 -235 30 0
236 235 -30 0
236 0
c Rand xor clause 7 with 7 lits
-237 153 147 0
-237 -153 -147 0
237 -153 147 0
237 153 -147 0
-238 237 114 0
-238 -237 -114 0
238 -237 114 0
238 237 -114 0
-239 238 173 0
-239 -238 -173 0
239 -238 173 0
239 238 -173 0
-240 239 124 0
-240 -239 -124 0
240 -239 124 0
240 239 -124 0
-241 240 35 0
-241 -240 -35 0
241 -240 35 0
241 240 -35 0
-242 241 30 0
-242 -241 -30 0
242 -241 30 0
242 241 -30 0
242 0
c Rand xor clause 8 with 7 lits
-243 153 147 0
-243 -153 -147 0
243 -153 147 0
243 153 -147 0
-244 243 114 0
-244 -243 -114 0
244 -243 114 0
244 243 -114 0
-245 244 173 0
-245 -244 -173 0
245 -244 173 0
245 244 -173 0
-246 245 124 0
-246 -245 -124 0
246 -245 124 0
246 245 -124 0
-247 246 35 0
-247 -246 -35 0
247 -246 35 0
247 246 -35 0
-248 247 30 0
-248 -247 -30 0
248 -247 30 0
248 247 -30 0
248 0
c Rand xor clause 9 with 7 lits
-249 153 147 0
-249 -153 -147 0
249 -153 147 0
249 153 -147 0
-250 249 114 0
-250 -249 -114 0
250 -249 114 0
250 249 -114 0
-251 250 173 0
-251 -250 -173 0
251 -250 173 0
251 250 -173 0
-252 251 124 0
-252 -251 -124 0
252 -251 124 0
252 251 -124 0
-253 252 35 0
-253 -252 -35 0
253 -252 35 0
253 252 -35 0
-254 253 30 0
-254 -253 -30 0
254 -253 30 0
254 253 -30 0
254 0
c Rand xor clause 10 with 7 lits
-255 153 147 0
-255 -153 -147 0
255 -153 147 0
255 153 -147 0
-256 255 114 0
-256 -255 -114 0
256 -255 114 0
256 255 -114 0
-257 256 173 0
-257 -256 -173 0
257 -256 173 0
257 256 -173 0
-258 257 124 0
-258 -257 -124 0
258 -257 124 0
258 257 -124 0
-259 258 35 0
-259 -258 -35 0
259 -258 35 0
259 258 -35 0
-260 259 30 0
-260 -259 -30 0
260 -259 30 0
260 259 -30 0
260 0
c Rand xor clause 11 with 7 lits
-261 153 147 0
-261 -153 -147 0
261 -153 147 0
261 153 -147 0
-262 261 114 0
-262 -261 -114 0
262 -261 114 0
262 261 -114 0
-263 262 173 0
-263 -262 -173 0
263 -262 173 0
263 262 -173 0
-264 263 124 0
-264 -263 -124 0
264 -263 124 0
264 263 -124 0
-265 264 35 0
-265 -264 -35 0
265 -264 35 0
265 264 -35 0
-266 265 30 0
-266 -265 -30 0
266 -265 30 0
266 265 -30 0
266 0
c Rand xor clause 12 with 7 lits
-267 153 147 0
-267 -153 -147 0
267 -153 147 0
267 153 -147 0
-268 267 114 0
-268 -267 -114 0
268 -267 114 0
268 267 -114 0
-269 268 173 0
-269 -268 -173 0
269 -268 173 0
269 268 -173 0
-270 269 124 0
-270 -269 -124 0
270 -269 124 0
270 269 -124 0
-271 270 35 0
-271 -270 -35 0
271 -270 35 0
271 270 -35 0
-272 271 30 0
-272 -271 -30 0
272 -271 30 0
272 271 -30 0
272 0
c Rand xor clause 13 with 7 lits
-273 153 147 0
-273 -153 -147 0
273 -153 147 0
273 153 -147 0
-274 273 114 0
-274 -273 -114 0
274 -273 114 0
274 273 -114 0
-275 274 173 0
-275 -274 -173 0
275 -274 173 0
275 274 -173 0
-276 275 124 0
-276 -275 -124 0
276 -275 124 0
276 275 -124 0
-277 276 35 0
-277 -276 -35 0
277 -276 35 0
277 276 -35 0
-278 277 30 0
-278 -277 -30 0
278 -277 30 0
278 277 -30 0
278 0
c Rand xor clause 14 with 7 lits
-279 153 147 0
-279 -153 -147 0
279 -153 147 0
279 153 -147 0
-280 279 114 0
-280 -279 -114 0
280 -279 114 0
280 279 -114 0
-281 280 173 0
-281 -280 -173 0
281 -280 173 0
281 280 -173 0
-282 281 124 0
-282 -281 -124 0
282 -281 124 0
282 281 -124 0
-283 282 35 0
-283 -282 -35 0
283 -282 35 0
283 282 -35 0
-284 283 30 0
-284 -283 -30 0
284 -283 30 0
284 283 -30 0
284 0
c Rand xor clause 15 with 7 lits
